p cnf 1461 2834
-43 -40 -37 87 0
-43 -40 -3 88 0
-43 -6 -3 89 0
-42 -39 -36 90 0
-42 -39 -2 91 0
-42 -5 -2 92 0
-41 -38 -35 93 0
-41 -38 -1 94 0
-41 -4 -1 95 0
-40 -37 -34 96 0
-39 -36 -33 97 0
-38 -35 -32 98 0
-37 -34 -31 99 0
-36 -33 -30 100 0
-35 -32 -29 101 0
-34 -31 -28 102 0
-33 -30 -27 103 0
-32 -29 -26 104 0
-31 -28 -25 105 0
-30 -27 -24 106 0
-29 -26 -23 107 0
-28 -25 -22 108 0
-27 -24 -21 109 0
-26 -23 -20 110 0
-25 -22 -19 111 0
-24 -21 -18 112 0
-23 -20 -17 113 0
-22 -19 -16 114 0
-21 -18 -15 115 0
-20 -17 -14 116 0
-19 -16 -13 117 0
-18 -15 -12 118 0
-17 -14 -11 119 0
-16 -13 -10 120 0
-15 -12 -9 121 0
-14 -11 -8 122 0
-13 -10 -7 123 0
-12 -9 -6 124 0
-11 -8 -5 125 0
-10 -7 -4 126 0
-9 -6 -3 127 0
-8 -5 -2 128 0
-7 -4 -1 129 0
1 2 44 50 130 0
1 6 49 131 0
1 14 132 0
1 20 133 0
1 20 44 134 0
1 20 68 135 0
1 25 136 0
1 25 49 137 0
1 25 68 138 0
1 31 139 0
1 39 44 140 0
1 43 49 86 141 0
1 44 142 0
1 44 49 143 0
1 44 68 144 0
1 49 145 0
1 49 68 146 0
1 50 147 0
1 86 148 0
2 3 45 51 149 0
2 7 50 150 0
2 15 151 0
2 21 152 0
2 21 45 153 0
2 21 69 154 0
2 26 155 0
2 26 50 156 0
2 26 69 157 0
2 32 158 0
2 40 45 159 0
2 44 160 0
2 45 161 0
2 45 50 162 0
2 45 69 163 0
2 50 164 0
2 50 69 165 0
2 51 166 0
3 4 46 52 167 0
3 8 51 168 0
3 16 169 0
3 22 170 0
3 22 46 171 0
3 22 70 172 0
3 27 173 0
3 27 51 174 0
3 27 70 175 0
3 33 176 0
3 41 46 177 0
3 45 178 0
3 46 179 0
3 46 51 180 0
3 46 70 181 0
3 51 182 0
3 51 70 183 0
3 52 184 0
4 5 47 53 185 0
4 9 52 186 0
4 17 187 0
4 23 188 0
4 23 47 189 0
4 23 71 190 0
4 28 191 0
4 28 52 192 0
4 28 71 193 0
4 34 194 0
4 42 47 195 0
4 46 196 0
4 47 197 0
4 47 52 198 0
4 47 71 199 0
4 52 200 0
4 52 71 201 0
4 53 202 0
5 6 48 54 203 0
5 10 53 204 0
5 18 205 0
5 24 206 0
5 24 48 207 0
5 24 72 208 0
5 29 209 0
5 29 53 210 0
5 29 72 211 0
5 35 212 0
5 43 48 213 0
5 47 214 0
5 48 215 0
5 48 53 216 0
5 48 72 217 0
5 53 218 0
5 53 72 219 0
5 54 220 0
6 7 49 55 221 0
6 11 54 222 0
6 19 223 0
6 25 224 0
6 25 49 225 0
6 25 73 226 0
6 30 227 0
6 30 54 228 0
6 30 73 229 0
6 36 230 0
6 48 231 0
6 49 232 0
6 49 54 233 0
6 49 73 234 0
6 54 235 0
6 54 73 236 0
6 55 237 0
7 8 50 56 238 0
7 12 55 239 0
7 20 240 0
7 26 241 0
7 26 50 242 0
7 26 74 243 0
7 31 244 0
7 31 55 245 0
7 31 74 246 0
7 37 247 0
7 49 248 0
7 50 249 0
7 50 55 250 0
7 50 74 251 0
7 55 252 0
7 55 74 253 0
7 56 254 0
8 9 51 57 255 0
8 13 56 256 0
8 21 257 0
8 27 258 0
8 27 51 259 0
8 27 75 260 0
8 32 261 0
8 32 56 262 0
8 32 75 263 0
8 38 264 0
8 50 265 0
8 51 266 0
8 51 56 267 0
8 51 75 268 0
8 56 269 0
8 56 75 270 0
8 57 271 0
9 10 52 58 272 0
9 14 57 273 0
9 22 274 0
9 28 275 0
9 28 52 276 0
9 28 76 277 0
9 33 278 0
9 33 57 279 0
9 33 76 280 0
9 39 281 0
9 51 282 0
9 52 283 0
9 52 57 284 0
9 52 76 285 0
9 57 286 0
9 57 76 287 0
9 58 288 0
10 11 53 59 289 0
10 15 58 290 0
10 23 291 0
10 29 292 0
10 29 53 293 0
10 29 77 294 0
10 34 295 0
10 34 58 296 0
10 34 77 297 0
10 40 298 0
10 52 299 0
10 53 300 0
10 53 58 301 0
10 53 77 302 0
10 58 303 0
10 58 77 304 0
10 59 305 0
11 12 54 60 306 0
11 16 59 307 0
11 24 308 0
11 30 309 0
11 30 54 310 0
11 30 78 311 0
11 35 312 0
11 35 59 313 0
11 35 78 314 0
11 41 315 0
11 53 316 0
11 54 317 0
11 54 59 318 0
11 54 78 319 0
11 59 320 0
11 59 78 321 0
11 60 322 0
12 13 55 61 323 0
12 17 60 324 0
12 25 325 0
12 31 326 0
12 31 55 327 0
12 31 79 328 0
12 36 329 0
12 36 60 330 0
12 36 79 331 0
12 42 332 0
12 54 333 0
12 55 334 0
12 55 60 335 0
12 55 79 336 0
12 60 337 0
12 60 79 338 0
12 61 339 0
13 14 56 62 340 0
13 18 61 341 0
13 26 342 0
13 32 343 0
13 32 56 344 0
13 32 80 345 0
13 37 346 0
13 37 61 347 0
13 37 80 348 0
13 43 349 0
13 55 350 0
13 56 351 0
13 56 61 352 0
13 56 80 353 0
13 61 354 0
13 61 80 355 0
13 62 356 0
14 15 57 63 357 0
14 19 62 358 0
14 27 359 0
14 33 360 0
14 33 57 361 0
14 33 81 362 0
14 38 363 0
14 38 62 364 0
14 38 81 365 0
14 56 366 0
14 57 367 0
14 57 62 368 0
14 57 81 369 0
14 62 370 0
14 62 81 371 0
14 63 372 0
15 16 58 64 373 0
15 20 63 374 0
15 28 375 0
15 34 376 0
15 34 58 377 0
15 34 82 378 0
15 39 379 0
15 39 63 380 0
15 39 82 381 0
15 57 382 0
15 58 383 0
15 58 63 384 0
15 58 82 385 0
15 63 386 0
15 63 82 387 0
15 64 388 0
16 17 59 65 389 0
16 21 64 390 0
16 29 391 0
16 35 392 0
16 35 59 393 0
16 35 83 394 0
16 40 395 0
16 40 64 396 0
16 40 83 397 0
16 58 398 0
16 59 399 0
16 59 64 400 0
16 59 83 401 0
16 64 402 0
16 64 83 403 0
16 65 404 0
17 18 60 66 405 0
17 22 65 406 0
17 30 407 0
17 36 408 0
17 36 60 409 0
17 36 84 410 0
17 41 411 0
17 41 65 412 0
17 41 84 413 0
17 59 414 0
17 60 415 0
17 60 65 416 0
17 60 84 417 0
17 65 418 0
17 65 84 419 0
17 66 420 0
18 19 61 67 421 0
18 23 66 422 0
18 31 423 0
18 37 424 0
18 37 61 425 0
18 37 85 426 0
18 42 427 0
18 42 66 428 0
18 42 85 429 0
18 60 430 0
18 61 431 0
18 61 66 432 0
18 61 85 433 0
18 66 434 0
18 66 85 435 0
18 67 436 0
19 20 62 68 437 0
19 24 67 438 0
19 32 439 0
19 38 440 0
19 38 62 441 0
19 38 86 442 0
19 43 443 0
19 43 67 444 0
19 43 86 445 0
19 61 446 0
19 62 447 0
19 62 67 448 0
19 62 86 449 0
19 67 450 0
19 67 86 451 0
19 68 452 0
20 21 63 69 453 0
20 25 68 454 0
20 33 455 0
20 39 456 0
20 39 44 457 0
20 39 63 458 0
20 44 63 459 0
20 44 68 460 0
20 62 461 0
20 63 462 0
20 63 68 463 0
20 68 464 0
20 69 465 0
21 22 64 70 466 0
21 26 69 467 0
21 34 468 0
21 40 469 0
21 40 45 470 0
21 40 64 471 0
21 45 64 472 0
21 45 69 473 0
21 63 474 0
21 64 475 0
21 64 69 476 0
21 69 477 0
21 70 478 0
22 23 65 71 479 0
22 27 70 480 0
22 35 481 0
22 41 482 0
22 41 46 483 0
22 41 65 484 0
22 46 65 485 0
22 46 70 486 0
22 64 487 0
22 65 488 0
22 65 70 489 0
22 70 490 0
22 71 491 0
23 24 66 72 492 0
23 28 71 493 0
23 36 494 0
23 42 495 0
23 42 47 496 0
23 42 66 497 0
23 47 66 498 0
23 47 71 499 0
23 65 500 0
23 66 501 0
23 66 71 502 0
23 71 503 0
23 72 504 0
24 25 67 73 505 0
24 29 72 506 0
24 37 507 0
24 43 508 0
24 43 48 509 0
24 43 67 510 0
24 48 67 511 0
24 48 72 512 0
24 66 513 0
24 67 514 0
24 67 72 515 0
24 72 516 0
24 73 517 0
25 26 68 74 518 0
25 30 73 519 0
25 38 520 0
25 49 68 521 0
25 49 73 522 0
25 67 523 0
25 68 524 0
25 68 73 525 0
25 73 526 0
25 74 527 0
26 27 69 75 528 0
26 31 74 529 0
26 39 530 0
26 50 69 531 0
26 50 74 532 0
26 68 533 0
26 69 534 0
26 69 74 535 0
26 74 536 0
26 75 537 0
27 28 70 76 538 0
27 32 75 539 0
27 40 540 0
27 51 70 541 0
27 51 75 542 0
27 69 543 0
27 70 544 0
27 70 75 545 0
27 75 546 0
27 76 547 0
28 29 71 77 548 0
28 33 76 549 0
28 41 550 0
28 52 71 551 0
28 52 76 552 0
28 70 553 0
28 71 554 0
28 71 76 555 0
28 76 556 0
28 77 557 0
29 30 72 78 558 0
29 34 77 559 0
29 42 560 0
29 53 72 561 0
29 53 77 562 0
29 71 563 0
29 72 564 0
29 72 77 565 0
29 77 566 0
29 78 567 0
30 31 73 79 568 0
30 35 78 569 0
30 43 570 0
30 54 73 571 0
30 54 78 572 0
30 72 573 0
30 73 574 0
30 73 78 575 0
30 78 576 0
30 79 577 0
31 32 74 80 578 0
31 36 79 579 0
31 55 74 580 0
31 55 79 581 0
31 73 582 0
31 74 583 0
31 74 79 584 0
31 79 585 0
31 80 586 0
32 33 75 81 587 0
32 37 80 588 0
32 56 75 589 0
32 56 80 590 0
32 74 591 0
32 75 592 0
32 75 80 593 0
32 80 594 0
32 81 595 0
33 34 76 82 596 0
33 38 81 597 0
33 57 76 598 0
33 57 81 599 0
33 75 600 0
33 76 601 0
33 76 81 602 0
33 81 603 0
33 82 604 0
34 35 77 83 605 0
34 39 82 606 0
34 58 77 607 0
34 58 82 608 0
34 76 609 0
34 77 610 0
34 77 82 611 0
34 82 612 0
34 83 613 0
35 36 78 84 614 0
35 40 83 615 0
35 59 78 616 0
35 59 83 617 0
35 77 618 0
35 78 619 0
35 78 83 620 0
35 83 621 0
35 84 622 0
36 37 79 85 623 0
36 41 84 624 0
36 60 79 625 0
36 60 84 626 0
36 78 627 0
36 79 628 0
36 79 84 629 0
36 84 630 0
36 85 631 0
37 38 80 86 632 0
37 42 85 633 0
37 61 80 634 0
37 61 85 635 0
37 79 636 0
37 80 637 0
37 80 85 638 0
37 85 639 0
37 86 640 0
38 39 44 81 641 0
38 43 86 642 0
38 44 643 0
38 62 81 644 0
38 62 86 645 0
38 80 646 0
38 81 647 0
38 81 86 648 0
38 86 649 0
39 40 45 82 650 0
39 44 651 0
39 44 63 652 0
39 44 82 653 0
39 45 654 0
39 63 82 655 0
39 81 656 0
39 82 657 0
40 41 46 83 658 0
40 45 659 0
40 45 64 660 0
40 45 83 661 0
40 46 662 0
40 64 83 663 0
40 82 664 0
40 83 665 0
41 42 47 84 666 0
41 46 667 0
41 46 65 668 0
41 46 84 669 0
41 47 670 0
41 65 84 671 0
41 83 672 0
41 84 673 0
42 43 48 85 674 0
42 47 675 0
42 47 66 676 0
42 47 85 677 0
42 48 678 0
42 66 85 679 0
42 84 680 0
42 85 681 0
43 48 682 0
43 48 67 683 0
43 48 86 684 0
43 49 685 0
43 67 86 686 0
43 85 687 0
43 86 688 0
44 689 0
44 63 690 0
44 68 691 0
45 692 0
45 64 693 0
45 69 694 0
46 695 0
46 65 696 0
46 70 697 0
47 698 0
47 66 699 0
47 71 700 0
48 701 0
48 67 702 0
48 72 703 0
49 704 0
49 68 705 0
49 73 706 0
50 707 0
50 69 708 0
50 74 709 0
51 710 0
51 70 711 0
51 75 712 0
52 713 0
52 71 714 0
52 76 715 0
53 716 0
53 72 717 0
53 77 718 0
54 719 0
54 73 720 0
54 78 721 0
55 722 0
55 74 723 0
55 79 724 0
56 725 0
56 75 726 0
56 80 727 0
57 728 0
57 76 729 0
57 81 730 0
58 731 0
58 77 732 0
58 82 733 0
59 734 0
59 78 735 0
59 83 736 0
60 737 0
60 79 738 0
60 84 739 0
61 740 0
61 80 741 0
61 85 742 0
62 743 0
62 81 744 0
62 86 745 0
63 746 0
63 82 747 0
64 748 0
64 83 749 0
65 750 0
65 84 751 0
66 752 0
66 85 753 0
67 754 0
67 86 755 0
68 756 0
69 757 0
70 758 0
71 759 0
72 760 0
73 761 0
74 762 0
75 763 0
76 764 0
77 765 0
78 766 0
79 767 0
80 768 0
81 769 0
82 770 0
83 771 0
84 772 0
85 773 0
86 774 0
-87 775 0
-88 776 0
-775 776 0
-88 -775 0
-89 777 0
-776 777 0
-89 -776 0
-90 778 0
-777 778 0
-90 -777 0
-91 779 0
-778 779 0
-91 -778 0
-92 780 0
-779 780 0
-92 -779 0
-93 781 0
-780 781 0
-93 -780 0
-94 782 0
-781 782 0
-94 -781 0
-95 783 0
-782 783 0
-95 -782 0
-96 784 0
-783 784 0
-96 -783 0
-97 785 0
-784 785 0
-97 -784 0
-98 786 0
-785 786 0
-98 -785 0
-99 787 0
-786 787 0
-99 -786 0
-100 788 0
-787 788 0
-100 -787 0
-101 789 0
-788 789 0
-101 -788 0
-102 790 0
-789 790 0
-102 -789 0
-103 791 0
-790 791 0
-103 -790 0
-104 792 0
-791 792 0
-104 -791 0
-105 793 0
-792 793 0
-105 -792 0
-106 794 0
-793 794 0
-106 -793 0
-107 795 0
-794 795 0
-107 -794 0
-108 796 0
-795 796 0
-108 -795 0
-109 797 0
-796 797 0
-109 -796 0
-110 798 0
-797 798 0
-110 -797 0
-111 799 0
-798 799 0
-111 -798 0
-112 800 0
-799 800 0
-112 -799 0
-113 801 0
-800 801 0
-113 -800 0
-114 802 0
-801 802 0
-114 -801 0
-115 803 0
-802 803 0
-115 -802 0
-116 804 0
-803 804 0
-116 -803 0
-117 805 0
-804 805 0
-117 -804 0
-118 806 0
-805 806 0
-118 -805 0
-119 807 0
-806 807 0
-119 -806 0
-120 808 0
-807 808 0
-120 -807 0
-121 809 0
-808 809 0
-121 -808 0
-122 810 0
-809 810 0
-122 -809 0
-123 811 0
-810 811 0
-123 -810 0
-124 812 0
-811 812 0
-124 -811 0
-125 813 0
-812 813 0
-125 -812 0
-126 814 0
-813 814 0
-126 -813 0
-127 815 0
-814 815 0
-127 -814 0
-128 816 0
-815 816 0
-128 -815 0
-129 817 0
-816 817 0
-129 -816 0
-130 818 0
-817 818 0
-130 -817 0
-131 819 0
-818 819 0
-131 -818 0
-132 820 0
-819 820 0
-132 -819 0
-133 821 0
-820 821 0
-133 -820 0
-134 822 0
-821 822 0
-134 -821 0
-135 823 0
-822 823 0
-135 -822 0
-136 824 0
-823 824 0
-136 -823 0
-137 825 0
-824 825 0
-137 -824 0
-138 826 0
-825 826 0
-138 -825 0
-139 827 0
-826 827 0
-139 -826 0
-140 828 0
-827 828 0
-140 -827 0
-141 829 0
-828 829 0
-141 -828 0
-142 830 0
-829 830 0
-142 -829 0
-143 831 0
-830 831 0
-143 -830 0
-144 832 0
-831 832 0
-144 -831 0
-145 833 0
-832 833 0
-145 -832 0
-146 834 0
-833 834 0
-146 -833 0
-147 835 0
-834 835 0
-147 -834 0
-148 836 0
-835 836 0
-148 -835 0
-149 837 0
-836 837 0
-149 -836 0
-150 838 0
-837 838 0
-150 -837 0
-151 839 0
-838 839 0
-151 -838 0
-152 840 0
-839 840 0
-152 -839 0
-153 841 0
-840 841 0
-153 -840 0
-154 842 0
-841 842 0
-154 -841 0
-155 843 0
-842 843 0
-155 -842 0
-156 844 0
-843 844 0
-156 -843 0
-157 845 0
-844 845 0
-157 -844 0
-158 846 0
-845 846 0
-158 -845 0
-159 847 0
-846 847 0
-159 -846 0
-160 848 0
-847 848 0
-160 -847 0
-161 849 0
-848 849 0
-161 -848 0
-162 850 0
-849 850 0
-162 -849 0
-163 851 0
-850 851 0
-163 -850 0
-164 852 0
-851 852 0
-164 -851 0
-165 853 0
-852 853 0
-165 -852 0
-166 854 0
-853 854 0
-166 -853 0
-167 855 0
-854 855 0
-167 -854 0
-168 856 0
-855 856 0
-168 -855 0
-169 857 0
-856 857 0
-169 -856 0
-170 858 0
-857 858 0
-170 -857 0
-171 859 0
-858 859 0
-171 -858 0
-172 860 0
-859 860 0
-172 -859 0
-173 861 0
-860 861 0
-173 -860 0
-174 862 0
-861 862 0
-174 -861 0
-175 863 0
-862 863 0
-175 -862 0
-176 864 0
-863 864 0
-176 -863 0
-177 865 0
-864 865 0
-177 -864 0
-178 866 0
-865 866 0
-178 -865 0
-179 867 0
-866 867 0
-179 -866 0
-180 868 0
-867 868 0
-180 -867 0
-181 869 0
-868 869 0
-181 -868 0
-182 870 0
-869 870 0
-182 -869 0
-183 871 0
-870 871 0
-183 -870 0
-184 872 0
-871 872 0
-184 -871 0
-185 873 0
-872 873 0
-185 -872 0
-186 874 0
-873 874 0
-186 -873 0
-187 875 0
-874 875 0
-187 -874 0
-188 876 0
-875 876 0
-188 -875 0
-189 877 0
-876 877 0
-189 -876 0
-190 878 0
-877 878 0
-190 -877 0
-191 879 0
-878 879 0
-191 -878 0
-192 880 0
-879 880 0
-192 -879 0
-193 881 0
-880 881 0
-193 -880 0
-194 882 0
-881 882 0
-194 -881 0
-195 883 0
-882 883 0
-195 -882 0
-196 884 0
-883 884 0
-196 -883 0
-197 885 0
-884 885 0
-197 -884 0
-198 886 0
-885 886 0
-198 -885 0
-199 887 0
-886 887 0
-199 -886 0
-200 888 0
-887 888 0
-200 -887 0
-201 889 0
-888 889 0
-201 -888 0
-202 890 0
-889 890 0
-202 -889 0
-203 891 0
-890 891 0
-203 -890 0
-204 892 0
-891 892 0
-204 -891 0
-205 893 0
-892 893 0
-205 -892 0
-206 894 0
-893 894 0
-206 -893 0
-207 895 0
-894 895 0
-207 -894 0
-208 896 0
-895 896 0
-208 -895 0
-209 897 0
-896 897 0
-209 -896 0
-210 898 0
-897 898 0
-210 -897 0
-211 899 0
-898 899 0
-211 -898 0
-212 900 0
-899 900 0
-212 -899 0
-213 901 0
-900 901 0
-213 -900 0
-214 902 0
-901 902 0
-214 -901 0
-215 903 0
-902 903 0
-215 -902 0
-216 904 0
-903 904 0
-216 -903 0
-217 905 0
-904 905 0
-217 -904 0
-218 906 0
-905 906 0
-218 -905 0
-219 907 0
-906 907 0
-219 -906 0
-220 908 0
-907 908 0
-220 -907 0
-221 909 0
-908 909 0
-221 -908 0
-222 910 0
-909 910 0
-222 -909 0
-223 911 0
-910 911 0
-223 -910 0
-224 912 0
-911 912 0
-224 -911 0
-225 913 0
-912 913 0
-225 -912 0
-226 914 0
-913 914 0
-226 -913 0
-227 915 0
-914 915 0
-227 -914 0
-228 916 0
-915 916 0
-228 -915 0
-229 917 0
-916 917 0
-229 -916 0
-230 918 0
-917 918 0
-230 -917 0
-231 919 0
-918 919 0
-231 -918 0
-232 920 0
-919 920 0
-232 -919 0
-233 921 0
-920 921 0
-233 -920 0
-234 922 0
-921 922 0
-234 -921 0
-235 923 0
-922 923 0
-235 -922 0
-236 924 0
-923 924 0
-236 -923 0
-237 925 0
-924 925 0
-237 -924 0
-238 926 0
-925 926 0
-238 -925 0
-239 927 0
-926 927 0
-239 -926 0
-240 928 0
-927 928 0
-240 -927 0
-241 929 0
-928 929 0
-241 -928 0
-242 930 0
-929 930 0
-242 -929 0
-243 931 0
-930 931 0
-243 -930 0
-244 932 0
-931 932 0
-244 -931 0
-245 933 0
-932 933 0
-245 -932 0
-246 934 0
-933 934 0
-246 -933 0
-247 935 0
-934 935 0
-247 -934 0
-248 936 0
-935 936 0
-248 -935 0
-249 937 0
-936 937 0
-249 -936 0
-250 938 0
-937 938 0
-250 -937 0
-251 939 0
-938 939 0
-251 -938 0
-252 940 0
-939 940 0
-252 -939 0
-253 941 0
-940 941 0
-253 -940 0
-254 942 0
-941 942 0
-254 -941 0
-255 943 0
-942 943 0
-255 -942 0
-256 944 0
-943 944 0
-256 -943 0
-257 945 0
-944 945 0
-257 -944 0
-258 946 0
-945 946 0
-258 -945 0
-259 947 0
-946 947 0
-259 -946 0
-260 948 0
-947 948 0
-260 -947 0
-261 949 0
-948 949 0
-261 -948 0
-262 950 0
-949 950 0
-262 -949 0
-263 951 0
-950 951 0
-263 -950 0
-264 952 0
-951 952 0
-264 -951 0
-265 953 0
-952 953 0
-265 -952 0
-266 954 0
-953 954 0
-266 -953 0
-267 955 0
-954 955 0
-267 -954 0
-268 956 0
-955 956 0
-268 -955 0
-269 957 0
-956 957 0
-269 -956 0
-270 958 0
-957 958 0
-270 -957 0
-271 959 0
-958 959 0
-271 -958 0
-272 960 0
-959 960 0
-272 -959 0
-273 961 0
-960 961 0
-273 -960 0
-274 962 0
-961 962 0
-274 -961 0
-275 963 0
-962 963 0
-275 -962 0
-276 964 0
-963 964 0
-276 -963 0
-277 965 0
-964 965 0
-277 -964 0
-278 966 0
-965 966 0
-278 -965 0
-279 967 0
-966 967 0
-279 -966 0
-280 968 0
-967 968 0
-280 -967 0
-281 969 0
-968 969 0
-281 -968 0
-282 970 0
-969 970 0
-282 -969 0
-283 971 0
-970 971 0
-283 -970 0
-284 972 0
-971 972 0
-284 -971 0
-285 973 0
-972 973 0
-285 -972 0
-286 974 0
-973 974 0
-286 -973 0
-287 975 0
-974 975 0
-287 -974 0
-288 976 0
-975 976 0
-288 -975 0
-289 977 0
-976 977 0
-289 -976 0
-290 978 0
-977 978 0
-290 -977 0
-291 979 0
-978 979 0
-291 -978 0
-292 980 0
-979 980 0
-292 -979 0
-293 981 0
-980 981 0
-293 -980 0
-294 982 0
-981 982 0
-294 -981 0
-295 983 0
-982 983 0
-295 -982 0
-296 984 0
-983 984 0
-296 -983 0
-297 985 0
-984 985 0
-297 -984 0
-298 986 0
-985 986 0
-298 -985 0
-299 987 0
-986 987 0
-299 -986 0
-300 988 0
-987 988 0
-300 -987 0
-301 989 0
-988 989 0
-301 -988 0
-302 990 0
-989 990 0
-302 -989 0
-303 991 0
-990 991 0
-303 -990 0
-304 992 0
-991 992 0
-304 -991 0
-305 993 0
-992 993 0
-305 -992 0
-306 994 0
-993 994 0
-306 -993 0
-307 995 0
-994 995 0
-307 -994 0
-308 996 0
-995 996 0
-308 -995 0
-309 997 0
-996 997 0
-309 -996 0
-310 998 0
-997 998 0
-310 -997 0
-311 999 0
-998 999 0
-311 -998 0
-312 1000 0
-999 1000 0
-312 -999 0
-313 1001 0
-1000 1001 0
-313 -1000 0
-314 1002 0
-1001 1002 0
-314 -1001 0
-315 1003 0
-1002 1003 0
-315 -1002 0
-316 1004 0
-1003 1004 0
-316 -1003 0
-317 1005 0
-1004 1005 0
-317 -1004 0
-318 1006 0
-1005 1006 0
-318 -1005 0
-319 1007 0
-1006 1007 0
-319 -1006 0
-320 1008 0
-1007 1008 0
-320 -1007 0
-321 1009 0
-1008 1009 0
-321 -1008 0
-322 1010 0
-1009 1010 0
-322 -1009 0
-323 1011 0
-1010 1011 0
-323 -1010 0
-324 1012 0
-1011 1012 0
-324 -1011 0
-325 1013 0
-1012 1013 0
-325 -1012 0
-326 1014 0
-1013 1014 0
-326 -1013 0
-327 1015 0
-1014 1015 0
-327 -1014 0
-328 1016 0
-1015 1016 0
-328 -1015 0
-329 1017 0
-1016 1017 0
-329 -1016 0
-330 1018 0
-1017 1018 0
-330 -1017 0
-331 1019 0
-1018 1019 0
-331 -1018 0
-332 1020 0
-1019 1020 0
-332 -1019 0
-333 1021 0
-1020 1021 0
-333 -1020 0
-334 1022 0
-1021 1022 0
-334 -1021 0
-335 1023 0
-1022 1023 0
-335 -1022 0
-336 1024 0
-1023 1024 0
-336 -1023 0
-337 1025 0
-1024 1025 0
-337 -1024 0
-338 1026 0
-1025 1026 0
-338 -1025 0
-339 1027 0
-1026 1027 0
-339 -1026 0
-340 1028 0
-1027 1028 0
-340 -1027 0
-341 1029 0
-1028 1029 0
-341 -1028 0
-342 1030 0
-1029 1030 0
-342 -1029 0
-343 1031 0
-1030 1031 0
-343 -1030 0
-344 1032 0
-1031 1032 0
-344 -1031 0
-345 1033 0
-1032 1033 0
-345 -1032 0
-346 1034 0
-1033 1034 0
-346 -1033 0
-347 1035 0
-1034 1035 0
-347 -1034 0
-348 1036 0
-1035 1036 0
-348 -1035 0
-349 1037 0
-1036 1037 0
-349 -1036 0
-350 1038 0
-1037 1038 0
-350 -1037 0
-351 1039 0
-1038 1039 0
-351 -1038 0
-352 1040 0
-1039 1040 0
-352 -1039 0
-353 1041 0
-1040 1041 0
-353 -1040 0
-354 1042 0
-1041 1042 0
-354 -1041 0
-355 1043 0
-1042 1043 0
-355 -1042 0
-356 1044 0
-1043 1044 0
-356 -1043 0
-357 1045 0
-1044 1045 0
-357 -1044 0
-358 1046 0
-1045 1046 0
-358 -1045 0
-359 1047 0
-1046 1047 0
-359 -1046 0
-360 1048 0
-1047 1048 0
-360 -1047 0
-361 1049 0
-1048 1049 0
-361 -1048 0
-362 1050 0
-1049 1050 0
-362 -1049 0
-363 1051 0
-1050 1051 0
-363 -1050 0
-364 1052 0
-1051 1052 0
-364 -1051 0
-365 1053 0
-1052 1053 0
-365 -1052 0
-366 1054 0
-1053 1054 0
-366 -1053 0
-367 1055 0
-1054 1055 0
-367 -1054 0
-368 1056 0
-1055 1056 0
-368 -1055 0
-369 1057 0
-1056 1057 0
-369 -1056 0
-370 1058 0
-1057 1058 0
-370 -1057 0
-371 1059 0
-1058 1059 0
-371 -1058 0
-372 1060 0
-1059 1060 0
-372 -1059 0
-373 1061 0
-1060 1061 0
-373 -1060 0
-374 1062 0
-1061 1062 0
-374 -1061 0
-375 1063 0
-1062 1063 0
-375 -1062 0
-376 1064 0
-1063 1064 0
-376 -1063 0
-377 1065 0
-1064 1065 0
-377 -1064 0
-378 1066 0
-1065 1066 0
-378 -1065 0
-379 1067 0
-1066 1067 0
-379 -1066 0
-380 1068 0
-1067 1068 0
-380 -1067 0
-381 1069 0
-1068 1069 0
-381 -1068 0
-382 1070 0
-1069 1070 0
-382 -1069 0
-383 1071 0
-1070 1071 0
-383 -1070 0
-384 1072 0
-1071 1072 0
-384 -1071 0
-385 1073 0
-1072 1073 0
-385 -1072 0
-386 1074 0
-1073 1074 0
-386 -1073 0
-387 1075 0
-1074 1075 0
-387 -1074 0
-388 1076 0
-1075 1076 0
-388 -1075 0
-389 1077 0
-1076 1077 0
-389 -1076 0
-390 1078 0
-1077 1078 0
-390 -1077 0
-391 1079 0
-1078 1079 0
-391 -1078 0
-392 1080 0
-1079 1080 0
-392 -1079 0
-393 1081 0
-1080 1081 0
-393 -1080 0
-394 1082 0
-1081 1082 0
-394 -1081 0
-395 1083 0
-1082 1083 0
-395 -1082 0
-396 1084 0
-1083 1084 0
-396 -1083 0
-397 1085 0
-1084 1085 0
-397 -1084 0
-398 1086 0
-1085 1086 0
-398 -1085 0
-399 1087 0
-1086 1087 0
-399 -1086 0
-400 1088 0
-1087 1088 0
-400 -1087 0
-401 1089 0
-1088 1089 0
-401 -1088 0
-402 1090 0
-1089 1090 0
-402 -1089 0
-403 1091 0
-1090 1091 0
-403 -1090 0
-404 1092 0
-1091 1092 0
-404 -1091 0
-405 1093 0
-1092 1093 0
-405 -1092 0
-406 1094 0
-1093 1094 0
-406 -1093 0
-407 1095 0
-1094 1095 0
-407 -1094 0
-408 1096 0
-1095 1096 0
-408 -1095 0
-409 1097 0
-1096 1097 0
-409 -1096 0
-410 1098 0
-1097 1098 0
-410 -1097 0
-411 1099 0
-1098 1099 0
-411 -1098 0
-412 1100 0
-1099 1100 0
-412 -1099 0
-413 1101 0
-1100 1101 0
-413 -1100 0
-414 1102 0
-1101 1102 0
-414 -1101 0
-415 1103 0
-1102 1103 0
-415 -1102 0
-416 1104 0
-1103 1104 0
-416 -1103 0
-417 1105 0
-1104 1105 0
-417 -1104 0
-418 1106 0
-1105 1106 0
-418 -1105 0
-419 1107 0
-1106 1107 0
-419 -1106 0
-420 1108 0
-1107 1108 0
-420 -1107 0
-421 1109 0
-1108 1109 0
-421 -1108 0
-422 1110 0
-1109 1110 0
-422 -1109 0
-423 1111 0
-1110 1111 0
-423 -1110 0
-424 1112 0
-1111 1112 0
-424 -1111 0
-425 1113 0
-1112 1113 0
-425 -1112 0
-426 1114 0
-1113 1114 0
-426 -1113 0
-427 1115 0
-1114 1115 0
-427 -1114 0
-428 1116 0
-1115 1116 0
-428 -1115 0
-429 1117 0
-1116 1117 0
-429 -1116 0
-430 1118 0
-1117 1118 0
-430 -1117 0
-431 1119 0
-1118 1119 0
-431 -1118 0
-432 1120 0
-1119 1120 0
-432 -1119 0
-433 1121 0
-1120 1121 0
-433 -1120 0
-434 1122 0
-1121 1122 0
-434 -1121 0
-435 1123 0
-1122 1123 0
-435 -1122 0
-436 1124 0
-1123 1124 0
-436 -1123 0
-437 1125 0
-1124 1125 0
-437 -1124 0
-438 1126 0
-1125 1126 0
-438 -1125 0
-439 1127 0
-1126 1127 0
-439 -1126 0
-440 1128 0
-1127 1128 0
-440 -1127 0
-441 1129 0
-1128 1129 0
-441 -1128 0
-442 1130 0
-1129 1130 0
-442 -1129 0
-443 1131 0
-1130 1131 0
-443 -1130 0
-444 1132 0
-1131 1132 0
-444 -1131 0
-445 1133 0
-1132 1133 0
-445 -1132 0
-446 1134 0
-1133 1134 0
-446 -1133 0
-447 1135 0
-1134 1135 0
-447 -1134 0
-448 1136 0
-1135 1136 0
-448 -1135 0
-449 1137 0
-1136 1137 0
-449 -1136 0
-450 1138 0
-1137 1138 0
-450 -1137 0
-451 1139 0
-1138 1139 0
-451 -1138 0
-452 1140 0
-1139 1140 0
-452 -1139 0
-453 1141 0
-1140 1141 0
-453 -1140 0
-454 1142 0
-1141 1142 0
-454 -1141 0
-455 1143 0
-1142 1143 0
-455 -1142 0
-456 1144 0
-1143 1144 0
-456 -1143 0
-457 1145 0
-1144 1145 0
-457 -1144 0
-458 1146 0
-1145 1146 0
-458 -1145 0
-459 1147 0
-1146 1147 0
-459 -1146 0
-460 1148 0
-1147 1148 0
-460 -1147 0
-461 1149 0
-1148 1149 0
-461 -1148 0
-462 1150 0
-1149 1150 0
-462 -1149 0
-463 1151 0
-1150 1151 0
-463 -1150 0
-464 1152 0
-1151 1152 0
-464 -1151 0
-465 1153 0
-1152 1153 0
-465 -1152 0
-466 1154 0
-1153 1154 0
-466 -1153 0
-467 1155 0
-1154 1155 0
-467 -1154 0
-468 1156 0
-1155 1156 0
-468 -1155 0
-469 1157 0
-1156 1157 0
-469 -1156 0
-470 1158 0
-1157 1158 0
-470 -1157 0
-471 1159 0
-1158 1159 0
-471 -1158 0
-472 1160 0
-1159 1160 0
-472 -1159 0
-473 1161 0
-1160 1161 0
-473 -1160 0
-474 1162 0
-1161 1162 0
-474 -1161 0
-475 1163 0
-1162 1163 0
-475 -1162 0
-476 1164 0
-1163 1164 0
-476 -1163 0
-477 1165 0
-1164 1165 0
-477 -1164 0
-478 1166 0
-1165 1166 0
-478 -1165 0
-479 1167 0
-1166 1167 0
-479 -1166 0
-480 1168 0
-1167 1168 0
-480 -1167 0
-481 1169 0
-1168 1169 0
-481 -1168 0
-482 1170 0
-1169 1170 0
-482 -1169 0
-483 1171 0
-1170 1171 0
-483 -1170 0
-484 1172 0
-1171 1172 0
-484 -1171 0
-485 1173 0
-1172 1173 0
-485 -1172 0
-486 1174 0
-1173 1174 0
-486 -1173 0
-487 1175 0
-1174 1175 0
-487 -1174 0
-488 1176 0
-1175 1176 0
-488 -1175 0
-489 1177 0
-1176 1177 0
-489 -1176 0
-490 1178 0
-1177 1178 0
-490 -1177 0
-491 1179 0
-1178 1179 0
-491 -1178 0
-492 1180 0
-1179 1180 0
-492 -1179 0
-493 1181 0
-1180 1181 0
-493 -1180 0
-494 1182 0
-1181 1182 0
-494 -1181 0
-495 1183 0
-1182 1183 0
-495 -1182 0
-496 1184 0
-1183 1184 0
-496 -1183 0
-497 1185 0
-1184 1185 0
-497 -1184 0
-498 1186 0
-1185 1186 0
-498 -1185 0
-499 1187 0
-1186 1187 0
-499 -1186 0
-500 1188 0
-1187 1188 0
-500 -1187 0
-501 1189 0
-1188 1189 0
-501 -1188 0
-502 1190 0
-1189 1190 0
-502 -1189 0
-503 1191 0
-1190 1191 0
-503 -1190 0
-504 1192 0
-1191 1192 0
-504 -1191 0
-505 1193 0
-1192 1193 0
-505 -1192 0
-506 1194 0
-1193 1194 0
-506 -1193 0
-507 1195 0
-1194 1195 0
-507 -1194 0
-508 1196 0
-1195 1196 0
-508 -1195 0
-509 1197 0
-1196 1197 0
-509 -1196 0
-510 1198 0
-1197 1198 0
-510 -1197 0
-511 1199 0
-1198 1199 0
-511 -1198 0
-512 1200 0
-1199 1200 0
-512 -1199 0
-513 1201 0
-1200 1201 0
-513 -1200 0
-514 1202 0
-1201 1202 0
-514 -1201 0
-515 1203 0
-1202 1203 0
-515 -1202 0
-516 1204 0
-1203 1204 0
-516 -1203 0
-517 1205 0
-1204 1205 0
-517 -1204 0
-518 1206 0
-1205 1206 0
-518 -1205 0
-519 1207 0
-1206 1207 0
-519 -1206 0
-520 1208 0
-1207 1208 0
-520 -1207 0
-521 1209 0
-1208 1209 0
-521 -1208 0
-522 1210 0
-1209 1210 0
-522 -1209 0
-523 1211 0
-1210 1211 0
-523 -1210 0
-524 1212 0
-1211 1212 0
-524 -1211 0
-525 1213 0
-1212 1213 0
-525 -1212 0
-526 1214 0
-1213 1214 0
-526 -1213 0
-527 1215 0
-1214 1215 0
-527 -1214 0
-528 1216 0
-1215 1216 0
-528 -1215 0
-529 1217 0
-1216 1217 0
-529 -1216 0
-530 1218 0
-1217 1218 0
-530 -1217 0
-531 1219 0
-1218 1219 0
-531 -1218 0
-532 1220 0
-1219 1220 0
-532 -1219 0
-533 1221 0
-1220 1221 0
-533 -1220 0
-534 1222 0
-1221 1222 0
-534 -1221 0
-535 1223 0
-1222 1223 0
-535 -1222 0
-536 1224 0
-1223 1224 0
-536 -1223 0
-537 1225 0
-1224 1225 0
-537 -1224 0
-538 1226 0
-1225 1226 0
-538 -1225 0
-539 1227 0
-1226 1227 0
-539 -1226 0
-540 1228 0
-1227 1228 0
-540 -1227 0
-541 1229 0
-1228 1229 0
-541 -1228 0
-542 1230 0
-1229 1230 0
-542 -1229 0
-543 1231 0
-1230 1231 0
-543 -1230 0
-544 1232 0
-1231 1232 0
-544 -1231 0
-545 1233 0
-1232 1233 0
-545 -1232 0
-546 1234 0
-1233 1234 0
-546 -1233 0
-547 1235 0
-1234 1235 0
-547 -1234 0
-548 1236 0
-1235 1236 0
-548 -1235 0
-549 1237 0
-1236 1237 0
-549 -1236 0
-550 1238 0
-1237 1238 0
-550 -1237 0
-551 1239 0
-1238 1239 0
-551 -1238 0
-552 1240 0
-1239 1240 0
-552 -1239 0
-553 1241 0
-1240 1241 0
-553 -1240 0
-554 1242 0
-1241 1242 0
-554 -1241 0
-555 1243 0
-1242 1243 0
-555 -1242 0
-556 1244 0
-1243 1244 0
-556 -1243 0
-557 1245 0
-1244 1245 0
-557 -1244 0
-558 1246 0
-1245 1246 0
-558 -1245 0
-559 1247 0
-1246 1247 0
-559 -1246 0
-560 1248 0
-1247 1248 0
-560 -1247 0
-561 1249 0
-1248 1249 0
-561 -1248 0
-562 1250 0
-1249 1250 0
-562 -1249 0
-563 1251 0
-1250 1251 0
-563 -1250 0
-564 1252 0
-1251 1252 0
-564 -1251 0
-565 1253 0
-1252 1253 0
-565 -1252 0
-566 1254 0
-1253 1254 0
-566 -1253 0
-567 1255 0
-1254 1255 0
-567 -1254 0
-568 1256 0
-1255 1256 0
-568 -1255 0
-569 1257 0
-1256 1257 0
-569 -1256 0
-570 1258 0
-1257 1258 0
-570 -1257 0
-571 1259 0
-1258 1259 0
-571 -1258 0
-572 1260 0
-1259 1260 0
-572 -1259 0
-573 1261 0
-1260 1261 0
-573 -1260 0
-574 1262 0
-1261 1262 0
-574 -1261 0
-575 1263 0
-1262 1263 0
-575 -1262 0
-576 1264 0
-1263 1264 0
-576 -1263 0
-577 1265 0
-1264 1265 0
-577 -1264 0
-578 1266 0
-1265 1266 0
-578 -1265 0
-579 1267 0
-1266 1267 0
-579 -1266 0
-580 1268 0
-1267 1268 0
-580 -1267 0
-581 1269 0
-1268 1269 0
-581 -1268 0
-582 1270 0
-1269 1270 0
-582 -1269 0
-583 1271 0
-1270 1271 0
-583 -1270 0
-584 1272 0
-1271 1272 0
-584 -1271 0
-585 1273 0
-1272 1273 0
-585 -1272 0
-586 1274 0
-1273 1274 0
-586 -1273 0
-587 1275 0
-1274 1275 0
-587 -1274 0
-588 1276 0
-1275 1276 0
-588 -1275 0
-589 1277 0
-1276 1277 0
-589 -1276 0
-590 1278 0
-1277 1278 0
-590 -1277 0
-591 1279 0
-1278 1279 0
-591 -1278 0
-592 1280 0
-1279 1280 0
-592 -1279 0
-593 1281 0
-1280 1281 0
-593 -1280 0
-594 1282 0
-1281 1282 0
-594 -1281 0
-595 1283 0
-1282 1283 0
-595 -1282 0
-596 1284 0
-1283 1284 0
-596 -1283 0
-597 1285 0
-1284 1285 0
-597 -1284 0
-598 1286 0
-1285 1286 0
-598 -1285 0
-599 1287 0
-1286 1287 0
-599 -1286 0
-600 1288 0
-1287 1288 0
-600 -1287 0
-601 1289 0
-1288 1289 0
-601 -1288 0
-602 1290 0
-1289 1290 0
-602 -1289 0
-603 1291 0
-1290 1291 0
-603 -1290 0
-604 1292 0
-1291 1292 0
-604 -1291 0
-605 1293 0
-1292 1293 0
-605 -1292 0
-606 1294 0
-1293 1294 0
-606 -1293 0
-607 1295 0
-1294 1295 0
-607 -1294 0
-608 1296 0
-1295 1296 0
-608 -1295 0
-609 1297 0
-1296 1297 0
-609 -1296 0
-610 1298 0
-1297 1298 0
-610 -1297 0
-611 1299 0
-1298 1299 0
-611 -1298 0
-612 1300 0
-1299 1300 0
-612 -1299 0
-613 1301 0
-1300 1301 0
-613 -1300 0
-614 1302 0
-1301 1302 0
-614 -1301 0
-615 1303 0
-1302 1303 0
-615 -1302 0
-616 1304 0
-1303 1304 0
-616 -1303 0
-617 1305 0
-1304 1305 0
-617 -1304 0
-618 1306 0
-1305 1306 0
-618 -1305 0
-619 1307 0
-1306 1307 0
-619 -1306 0
-620 1308 0
-1307 1308 0
-620 -1307 0
-621 1309 0
-1308 1309 0
-621 -1308 0
-622 1310 0
-1309 1310 0
-622 -1309 0
-623 1311 0
-1310 1311 0
-623 -1310 0
-624 1312 0
-1311 1312 0
-624 -1311 0
-625 1313 0
-1312 1313 0
-625 -1312 0
-626 1314 0
-1313 1314 0
-626 -1313 0
-627 1315 0
-1314 1315 0
-627 -1314 0
-628 1316 0
-1315 1316 0
-628 -1315 0
-629 1317 0
-1316 1317 0
-629 -1316 0
-630 1318 0
-1317 1318 0
-630 -1317 0
-631 1319 0
-1318 1319 0
-631 -1318 0
-632 1320 0
-1319 1320 0
-632 -1319 0
-633 1321 0
-1320 1321 0
-633 -1320 0
-634 1322 0
-1321 1322 0
-634 -1321 0
-635 1323 0
-1322 1323 0
-635 -1322 0
-636 1324 0
-1323 1324 0
-636 -1323 0
-637 1325 0
-1324 1325 0
-637 -1324 0
-638 1326 0
-1325 1326 0
-638 -1325 0
-639 1327 0
-1326 1327 0
-639 -1326 0
-640 1328 0
-1327 1328 0
-640 -1327 0
-641 1329 0
-1328 1329 0
-641 -1328 0
-642 1330 0
-1329 1330 0
-642 -1329 0
-643 1331 0
-1330 1331 0
-643 -1330 0
-644 1332 0
-1331 1332 0
-644 -1331 0
-645 1333 0
-1332 1333 0
-645 -1332 0
-646 1334 0
-1333 1334 0
-646 -1333 0
-647 1335 0
-1334 1335 0
-647 -1334 0
-648 1336 0
-1335 1336 0
-648 -1335 0
-649 1337 0
-1336 1337 0
-649 -1336 0
-650 1338 0
-1337 1338 0
-650 -1337 0
-651 1339 0
-1338 1339 0
-651 -1338 0
-652 1340 0
-1339 1340 0
-652 -1339 0
-653 1341 0
-1340 1341 0
-653 -1340 0
-654 1342 0
-1341 1342 0
-654 -1341 0
-655 1343 0
-1342 1343 0
-655 -1342 0
-656 1344 0
-1343 1344 0
-656 -1343 0
-657 1345 0
-1344 1345 0
-657 -1344 0
-658 1346 0
-1345 1346 0
-658 -1345 0
-659 1347 0
-1346 1347 0
-659 -1346 0
-660 1348 0
-1347 1348 0
-660 -1347 0
-661 1349 0
-1348 1349 0
-661 -1348 0
-662 1350 0
-1349 1350 0
-662 -1349 0
-663 1351 0
-1350 1351 0
-663 -1350 0
-664 1352 0
-1351 1352 0
-664 -1351 0
-665 1353 0
-1352 1353 0
-665 -1352 0
-666 1354 0
-1353 1354 0
-666 -1353 0
-667 1355 0
-1354 1355 0
-667 -1354 0
-668 1356 0
-1355 1356 0
-668 -1355 0
-669 1357 0
-1356 1357 0
-669 -1356 0
-670 1358 0
-1357 1358 0
-670 -1357 0
-671 1359 0
-1358 1359 0
-671 -1358 0
-672 1360 0
-1359 1360 0
-672 -1359 0
-673 1361 0
-1360 1361 0
-673 -1360 0
-674 1362 0
-1361 1362 0
-674 -1361 0
-675 1363 0
-1362 1363 0
-675 -1362 0
-676 1364 0
-1363 1364 0
-676 -1363 0
-677 1365 0
-1364 1365 0
-677 -1364 0
-678 1366 0
-1365 1366 0
-678 -1365 0
-679 1367 0
-1366 1367 0
-679 -1366 0
-680 1368 0
-1367 1368 0
-680 -1367 0
-681 1369 0
-1368 1369 0
-681 -1368 0
-682 1370 0
-1369 1370 0
-682 -1369 0
-683 1371 0
-1370 1371 0
-683 -1370 0
-684 1372 0
-1371 1372 0
-684 -1371 0
-685 1373 0
-1372 1373 0
-685 -1372 0
-686 1374 0
-1373 1374 0
-686 -1373 0
-687 1375 0
-1374 1375 0
-687 -1374 0
-688 1376 0
-1375 1376 0
-688 -1375 0
-689 1377 0
-1376 1377 0
-689 -1376 0
-690 1378 0
-1377 1378 0
-690 -1377 0
-691 1379 0
-1378 1379 0
-691 -1378 0
-692 1380 0
-1379 1380 0
-692 -1379 0
-693 1381 0
-1380 1381 0
-693 -1380 0
-694 1382 0
-1381 1382 0
-694 -1381 0
-695 1383 0
-1382 1383 0
-695 -1382 0
-696 1384 0
-1383 1384 0
-696 -1383 0
-697 1385 0
-1384 1385 0
-697 -1384 0
-698 1386 0
-1385 1386 0
-698 -1385 0
-699 1387 0
-1386 1387 0
-699 -1386 0
-700 1388 0
-1387 1388 0
-700 -1387 0
-701 1389 0
-1388 1389 0
-701 -1388 0
-702 1390 0
-1389 1390 0
-702 -1389 0
-703 1391 0
-1390 1391 0
-703 -1390 0
-704 1392 0
-1391 1392 0
-704 -1391 0
-705 1393 0
-1392 1393 0
-705 -1392 0
-706 1394 0
-1393 1394 0
-706 -1393 0
-707 1395 0
-1394 1395 0
-707 -1394 0
-708 1396 0
-1395 1396 0
-708 -1395 0
-709 1397 0
-1396 1397 0
-709 -1396 0
-710 1398 0
-1397 1398 0
-710 -1397 0
-711 1399 0
-1398 1399 0
-711 -1398 0
-712 1400 0
-1399 1400 0
-712 -1399 0
-713 1401 0
-1400 1401 0
-713 -1400 0
-714 1402 0
-1401 1402 0
-714 -1401 0
-715 1403 0
-1402 1403 0
-715 -1402 0
-716 1404 0
-1403 1404 0
-716 -1403 0
-717 1405 0
-1404 1405 0
-717 -1404 0
-718 1406 0
-1405 1406 0
-718 -1405 0
-719 1407 0
-1406 1407 0
-719 -1406 0
-720 1408 0
-1407 1408 0
-720 -1407 0
-721 1409 0
-1408 1409 0
-721 -1408 0
-722 1410 0
-1409 1410 0
-722 -1409 0
-723 1411 0
-1410 1411 0
-723 -1410 0
-724 1412 0
-1411 1412 0
-724 -1411 0
-725 1413 0
-1412 1413 0
-725 -1412 0
-726 1414 0
-1413 1414 0
-726 -1413 0
-727 1415 0
-1414 1415 0
-727 -1414 0
-728 1416 0
-1415 1416 0
-728 -1415 0
-729 1417 0
-1416 1417 0
-729 -1416 0
-730 1418 0
-1417 1418 0
-730 -1417 0
-731 1419 0
-1418 1419 0
-731 -1418 0
-732 1420 0
-1419 1420 0
-732 -1419 0
-733 1421 0
-1420 1421 0
-733 -1420 0
-734 1422 0
-1421 1422 0
-734 -1421 0
-735 1423 0
-1422 1423 0
-735 -1422 0
-736 1424 0
-1423 1424 0
-736 -1423 0
-737 1425 0
-1424 1425 0
-737 -1424 0
-738 1426 0
-1425 1426 0
-738 -1425 0
-739 1427 0
-1426 1427 0
-739 -1426 0
-740 1428 0
-1427 1428 0
-740 -1427 0
-741 1429 0
-1428 1429 0
-741 -1428 0
-742 1430 0
-1429 1430 0
-742 -1429 0
-743 1431 0
-1430 1431 0
-743 -1430 0
-744 1432 0
-1431 1432 0
-744 -1431 0
-745 1433 0
-1432 1433 0
-745 -1432 0
-746 1434 0
-1433 1434 0
-746 -1433 0
-747 1435 0
-1434 1435 0
-747 -1434 0
-748 1436 0
-1435 1436 0
-748 -1435 0
-749 1437 0
-1436 1437 0
-749 -1436 0
-750 1438 0
-1437 1438 0
-750 -1437 0
-751 1439 0
-1438 1439 0
-751 -1438 0
-752 1440 0
-1439 1440 0
-752 -1439 0
-753 1441 0
-1440 1441 0
-753 -1440 0
-754 1442 0
-1441 1442 0
-754 -1441 0
-755 1443 0
-1442 1443 0
-755 -1442 0
-756 1444 0
-1443 1444 0
-756 -1443 0
-757 1445 0
-1444 1445 0
-757 -1444 0
-758 1446 0
-1445 1446 0
-758 -1445 0
-759 1447 0
-1446 1447 0
-759 -1446 0
-760 1448 0
-1447 1448 0
-760 -1447 0
-761 1449 0
-1448 1449 0
-761 -1448 0
-762 1450 0
-1449 1450 0
-762 -1449 0
-763 1451 0
-1450 1451 0
-763 -1450 0
-764 1452 0
-1451 1452 0
-764 -1451 0
-765 1453 0
-1452 1453 0
-765 -1452 0
-766 1454 0
-1453 1454 0
-766 -1453 0
-767 1455 0
-1454 1455 0
-767 -1454 0
-768 1456 0
-1455 1456 0
-768 -1455 0
-769 1457 0
-1456 1457 0
-769 -1456 0
-770 1458 0
-1457 1458 0
-770 -1457 0
-771 1459 0
-1458 1459 0
-771 -1458 0
-772 1460 0
-1459 1460 0
-772 -1459 0
-773 1461 0
-1460 1461 0
-773 -1460 0
-774 -1461 0
-1 0
2 0
3 0
4 0
-5 0
-6 0
-7 0
8 0
9 0
10 0
-11 0
-12 0
13 0
14 0
15 0
-16 0
-17 0
18 0
19 0
20 0
-21 0
-22 0
-23 0
24 0
25 0
26 0
-27 0
-28 0
29 0
30 0
31 0
-32 0
-33 0
34 0
35 0
36 0
-37 0
-38 0
-39 0
40 0
41 0
42 0
-43 0
44 0
45 0
46 0
47 0
48 0
49 0
50 0
51 0
52 0
53 0
54 0
55 0
56 0
57 0
58 0
59 0
60 0
61 0
62 0
63 0
64 0
65 0
66 0
67 0
68 0
69 0
70 0
71 0
72 0
73 0
74 0
75 0
76 0
77 0
78 0
79 0
80 0
81 0
82 0
83 0
84 0
85 0
86 0
